============================[ Problem Statistics ]=============================|                                                                             ||  Number of variables:         27391                                         ||  Number of clauses:             510                                         ||  Parse time:                   0.09 s                                       ||                                                                             |===============================================================================Solved by unit propagationrestarts              : 0conflicts             : 0              (0 /sec)decisions             : 0              (-nan(ind) % random) (0 /sec)propagations          : 291            (3198 /sec)conflict literals     : 0              (-nan(ind) % deleted)CPU time              : 0.091 sUNSATISFIABLE